monday,tuesday,wednesday,thursday,friday,saturday,sunday,start_date,end_date,service_id
0,0,0,0,0,0,1,20260307,20260308,785
0,0,0,0,0,0,1,20260307,20260315,810
0,0,0,0,0,0,1,20260307,20260319,120
0,0,0,0,0,0,1,20260307,20260319,489
0,0,0,0,0,0,1,20260307,20260405,191
0,0,0,0,0,0,1,20260308,20260315,1062
0,0,0,0,0,0,1,20260308,20260315,125
0,0,0,0,0,0,1,20260308,20260315,236
0,0,0,0,0,0,1,20260308,20260322,1039
0,0,0,0,0,0,1,20260308,20260322,132
0,0,0,0,0,0,1,20260308,20260322,738
0,0,0,0,0,0,1,20260308,20260322,800
0,0,0,0,0,0,1,20260308,20260322,90
0,0,0,0,0,0,1,20260308,20260329,107
0,0,0,0,0,0,1,20260308,20260329,830
0,0,0,0,0,0,1,20260308,20260405,311
0,0,0,0,0,0,1,20260308,20260405,905
0,0,0,0,0,0,1,20260308,20260405,944
0,0,0,0,0,0,1,20260308,20260406,226
0,0,0,0,0,0,1,20260308,20260406,43
0,0,0,0,0,0,1,20260308,20260406,817
0,0,0,0,0,0,1,20260308,20260406,860
0,0,0,0,0,0,1,20260314,20260327,365
0,0,0,0,0,0,1,20260314,20260406,506
0,0,0,0,0,0,1,20260315,20260322,501
0,0,0,0,0,0,1,20260315,20260329,645
0,0,0,0,0,0,1,20260315,20260329,86
0,0,0,0,0,0,1,20260315,20260405,122
0,0,0,0,0,0,1,20260315,20260405,499
0,0,0,0,0,0,1,20260315,20260406,134
0,0,0,0,0,0,1,20260315,20260406,424
0,0,0,0,0,0,1,20260321,20260329,653
0,0,0,0,0,0,1,20260321,20260402,345
0,0,0,0,0,0,1,20260322,20260329,408
0,0,0,0,0,0,1,20260322,20260330,106
0,0,0,0,0,0,1,20260322,20260331,103
0,0,0,0,0,0,1,20260322,20260405,181
0,0,0,0,0,0,1,20260322,20260405,246
0,0,0,0,0,0,1,20260322,20260405,310
0,0,0,0,0,0,1,20260322,20260405,864
0,0,0,0,0,0,1,20260322,20260406,514
0,0,0,0,0,0,1,20260323,20260405,955
0,0,0,0,0,0,1,20260329,20260405,142
0,0,0,0,0,0,1,20260329,20260406,28
0,0,0,0,0,1,0,20260307,20260314,613
0,0,0,0,0,1,0,20260307,20260314,616
0,0,0,0,0,1,0,20260307,20260314,728
0,0,0,0,0,1,0,20260307,20260315,778
0,0,0,0,0,1,0,20260307,20260319,363
0,0,0,0,0,1,0,20260307,20260321,340
0,0,0,0,0,1,0,20260307,20260321,515
0,0,0,0,0,1,0,20260307,20260321,784
0,0,0,0,0,1,0,20260307,20260328,197
0,0,0,0,0,1,0,20260307,20260403,963
0,0,0,0,0,1,0,20260307,20260404,637
0,0,0,0,0,1,0,20260307,20260405,1003
0,0,0,0,0,1,0,20260307,20260405,273
0,0,0,0,0,1,0,20260307,20260405,838
0,0,0,0,0,1,0,20260314,20260321,614
0,0,0,0,0,1,0,20260314,20260328,910
0,0,0,0,0,1,0,20260314,20260404,598
0,0,0,0,0,1,0,20260314,20260404,642
0,0,0,0,0,1,0,20260314,20260405,159
0,0,0,0,0,1,0,20260314,20260405,440
0,0,0,0,0,1,0,20260314,20260405,875
0,0,0,0,0,1,0,20260314,20260406,397
0,0,0,0,0,1,0,20260321,20260328,629
0,0,0,0,0,1,0,20260321,20260329,140
0,0,0,0,0,1,0,20260321,20260404,344
0,0,0,0,0,1,0,20260321,20260404,836
0,0,0,0,0,1,0,20260321,20260405,1040
0,0,0,0,0,1,0,20260321,20260405,462
0,0,0,0,0,1,0,20260321,20260405,681
0,0,0,0,0,1,0,20260327,20260404,448
0,0,0,0,0,1,0,20260328,20260404,660
0,0,0,0,0,1,0,20260328,20260404,856
0,0,0,0,0,1,0,20260328,20260405,745
0,0,0,0,0,1,1,20260307,20260308,843
0,0,0,0,0,1,1,20260307,20260315,316
0,0,0,0,0,1,1,20260307,20260315,319
0,0,0,0,0,1,1,20260307,20260315,479
0,0,0,0,0,1,1,20260307,20260321,539
0,0,0,0,0,1,1,20260307,20260322,710
0,0,0,0,0,1,1,20260307,20260322,714
0,0,0,0,0,1,1,20260307,20260329,14
0,0,0,0,0,1,1,20260307,20260404,547
0,0,0,0,0,1,1,20260307,20260405,467
0,0,0,0,0,1,1,20260307,20260405,486
0,0,0,0,0,1,1,20260307,20260405,498
0,0,0,0,0,1,1,20260307,20260405,869
0,0,0,0,0,1,1,20260307,20260405,871
0,0,0,0,0,1,1,20260307,20260405,904
0,0,0,0,0,1,1,20260307,20260406,27
0,0,0,0,0,1,1,20260307,20260406,332
0,0,0,0,0,1,1,20260307,20260406,456
0,0,0,0,0,1,1,20260307,20260406,49
0,0,0,0,0,1,1,20260307,20260406,678
0,0,0,0,0,1,1,20260307,20260406,703
0,0,0,0,0,1,1,20260307,20260406,72
0,0,0,0,0,1,1,20260308,20260315,274
0,0,0,0,0,1,1,20260313,20260329,333
0,0,0,0,0,1,1,20260314,20260315,811
0,0,0,0,0,1,1,20260314,20260322,782
0,0,0,0,0,1,1,20260314,20260324,648
0,0,0,0,0,1,1,20260314,20260329,392
0,0,0,0,0,1,1,20260314,20260329,723
0,0,0,0,0,1,1,20260314,20260405,244
0,0,0,0,0,1,1,20260314,20260405,280
0,0,0,0,0,1,1,20260314,20260406,18
0,0,0,0,0,1,1,20260314,20260406,524
0,0,0,0,0,1,1,20260315,20260322,104
0,0,0,0,0,1,1,20260318,20260329,457
0,0,0,0,0,1,1,20260321,20260322,766
0,0,0,0,0,1,1,20260321,20260328,607
0,0,0,0,0,1,1,20260321,20260329,755
0,0,0,0,0,1,1,20260321,20260329,763
0,0,0,0,0,1,1,20260321,20260403,1033
0,0,0,0,0,1,1,20260321,20260405,1038
0,0,0,0,0,1,1,20260321,20260405,632
0,0,0,0,0,1,1,20260321,20260405,664
0,0,0,0,0,1,1,20260321,20260406,798
0,0,0,0,0,1,1,20260321,20260406,834
0,0,0,0,0,1,1,20260322,20260328,174
0,0,0,0,0,1,1,20260322,20260329,519
0,0,0,0,0,1,1,20260322,20260331,237
0,0,0,0,0,1,1,20260328,20260329,615
0,0,0,0,0,1,1,20260328,20260404,756
0,0,0,0,0,1,1,20260328,20260405,585
0,0,0,0,0,1,1,20260328,20260406,396
0,0,0,0,0,1,1,20260328,20260406,520
0,0,0,0,0,1,1,20260328,20260406,845
0,0,0,0,0,1,1,20260329,20260404,307
0,0,0,0,0,1,1,20260329,20260404,403
0,0,0,0,0,1,1,20260329,20260405,1032
0,0,0,0,0,1,1,20260329,20260405,736
0,0,0,0,0,1,1,20260329,20260406,315
0,0,0,0,0,1,1,20260404,20260405,483
0,0,0,0,1,0,0,20260307,20260320,269
0,0,0,0,1,0,0,20260307,20260406,266
0,0,0,0,1,0,0,20260310,20260329,91
0,0,0,0,1,0,0,20260313,20260320,217
0,0,0,0,1,0,0,20260313,20260320,801
0,0,0,0,1,0,0,20260313,20260327,1017
0,0,0,0,1,0,0,20260313,20260327,872
0,0,0,0,1,0,0,20260313,20260328,687
0,0,0,0,1,0,0,20260313,20260329,1028
0,0,0,0,1,0,0,20260313,20260403,1012
0,0,0,0,1,0,0,20260313,20260405,165
0,0,0,0,1,0,0,20260313,20260405,969
0,0,0,0,1,0,0,20260320,20260327,529
0,0,0,0,1,0,0,20260320,20260402,227
0,0,0,0,1,0,0,20260320,20260403,394
0,0,0,0,1,0,0,20260320,20260405,281
0,0,0,0,1,0,0,20260326,20260403,874
0,0,0,0,1,0,0,20260327,20260405,160
0,0,0,0,1,0,0,20260328,20260405,721
0,0,0,0,1,0,1,20260308,20260313,329
0,0,0,0,1,0,1,20260308,20260313,991
0,0,0,0,1,0,1,20260308,20260320,284
0,0,0,0,1,0,1,20260308,20260402,686
0,0,0,0,1,0,1,20260313,20260315,297
0,0,0,0,1,0,1,20260313,20260322,146
0,0,0,0,1,0,1,20260313,20260327,421
0,0,0,0,1,0,1,20260322,20260327,779
0,0,0,0,1,0,1,20260322,20260403,446
0,0,0,0,1,0,1,20260327,20260329,356
0,0,0,0,1,0,1,20260327,20260405,444
0,0,0,0,1,0,1,20260328,20260406,604
0,0,0,0,1,0,1,20260329,20260406,431
0,0,0,0,1,0,1,20260403,20260405,729
0,0,0,0,1,1,0,20260307,20260313,219
0,0,0,0,1,1,0,20260307,20260321,777
0,0,0,0,1,1,0,20260307,20260402,964
0,0,0,0,1,1,0,20260307,20260405,1013
0,0,0,0,1,1,0,20260307,20260406,82
0,0,0,0,1,1,0,20260313,20260314,31
0,0,0,0,1,1,0,20260313,20260329,760
0,0,0,0,1,1,0,20260313,20260404,477
0,0,0,0,1,1,0,20260314,20260320,551
0,0,0,0,1,1,0,20260320,20260321,337
0,0,0,0,1,1,0,20260320,20260404,842
0,0,0,0,1,1,0,20260320,20260405,883
0,0,0,0,1,1,0,20260327,20260328,611
0,0,0,0,1,1,0,20260327,20260329,854
0,0,0,0,1,1,0,20260328,20260329,263
0,0,0,0,1,1,0,20260328,20260403,560
0,0,0,0,1,1,0,20260328,20260405,407
0,0,0,0,1,1,0,20260403,20260404,309
0,0,0,0,1,1,0,20260403,20260404,813
0,0,0,0,1,1,0,20260403,20260405,586
0,0,0,0,1,1,0,20260403,20260406,808
0,0,0,0,1,1,0,20260404,20260406,441
0,0,0,0,1,1,1,20260307,20260313,245
0,0,0,0,1,1,1,20260307,20260318,149
0,0,0,0,1,1,1,20260307,20260319,761
0,0,0,0,1,1,1,20260307,20260405,593
0,0,0,0,1,1,1,20260307,20260406,803
0,0,0,0,1,1,1,20260308,20260319,287
0,0,0,0,1,1,1,20260310,20260327,650
0,0,0,0,1,1,1,20260313,20260315,920
0,0,0,0,1,1,1,20260313,20260322,137
0,0,0,0,1,1,1,20260313,20260405,224
0,0,0,0,1,1,1,20260313,20260405,623
0,0,0,0,1,1,1,20260313,20260405,821
0,0,0,0,1,1,1,20260314,20260329,26
0,0,0,0,1,1,1,20260315,20260322,182
0,0,0,0,1,1,1,20260320,20260322,405
0,0,0,0,1,1,1,20260322,20260328,997
0,0,0,0,1,1,1,20260327,20260329,712
0,0,0,0,1,1,1,20260327,20260405,417
0,0,0,0,1,1,1,20260328,20260406,542
0,0,0,0,1,1,1,20260329,20260406,701
0,0,0,0,1,1,1,20260403,20260405,767
0,0,0,1,0,0,0,20260312,20260325,893
0,0,0,1,0,0,0,20260319,20260326,502
0,0,0,1,0,0,1,20260308,20260312,455
0,0,0,1,0,0,1,20260308,20260312,458
0,0,0,1,0,0,1,20260329,20260402,525
0,0,0,1,0,0,1,20260402,20260405,188
0,0,0,1,0,1,0,20260319,20260321,453
0,0,0,1,0,1,0,20260328,20260402,669
0,0,0,1,0,1,0,20260328,20260405,896
0,0,0,1,0,1,0,20260402,20260404,1036
0,0,0,1,0,1,1,20260307,20260314,663
0,0,0,1,0,1,1,20260307,20260317,599
0,0,0,1,0,1,1,20260314,20260319,1023
0,0,0,1,0,1,1,20260319,20260322,624
0,0,0,1,0,1,1,20260329,20260404,388
0,0,0,1,0,1,1,20260402,20260405,621
0,0,0,1,1,0,0,20260312,20260313,718
0,0,0,1,1,0,0,20260312,20260403,746
0,0,0,1,1,0,0,20260313,20260320,437
0,0,0,1,1,0,0,20260319,20260320,1010
0,0,0,1,1,0,0,20260319,20260320,665
0,0,0,1,1,0,0,20260319,20260320,706
0,0,0,1,1,0,0,20260319,20260326,447
0,0,0,1,1,0,0,20260320,20260326,764
0,0,0,1,1,0,0,20260326,20260327,168
0,0,0,1,1,0,0,20260327,20260402,572
0,0,0,1,1,0,0,20260402,20260403,366
0,0,0,1,1,0,0,20260402,20260403,411
0,0,0,1,1,0,1,20260312,20260319,861
0,0,0,1,1,1,0,20260312,20260314,1024
0,0,0,1,1,1,0,20260312,20260314,643
0,0,0,1,1,1,0,20260319,20260321,676
0,0,0,1,1,1,0,20260326,20260328,15
0,0,0,1,1,1,0,20260326,20260401,262
0,0,0,1,1,1,0,20260328,20260403,179
0,0,0,1,1,1,0,20260328,20260406,965
0,0,0,1,1,1,0,20260328,20260406,975
0,0,0,1,1,1,0,20260402,20260404,636
0,0,0,1,1,1,1,20260308,20260319,267
0,0,0,1,1,1,1,20260312,20260326,668
0,0,0,1,1,1,1,20260319,20260322,128
0,0,0,1,1,1,1,20260320,20260326,833
0,0,0,1,1,1,1,20260328,20260403,468
0,0,0,1,1,1,1,20260328,20260406,870
0,0,0,1,1,1,1,20260329,20260406,438
0,0,1,0,0,0,1,20260308,20260311,119
0,0,1,0,0,0,1,20260311,20260315,732
0,0,1,0,0,0,1,20260315,20260318,37
0,0,1,0,0,1,0,20260307,20260311,949
0,0,1,0,0,1,0,20260318,20260321,289
0,0,1,0,0,1,0,20260328,20260401,507
0,0,1,0,0,1,1,20260307,20260311,596
0,0,1,0,0,1,1,20260307,20260319,357
0,0,1,0,0,1,1,20260328,20260401,929
0,0,1,0,0,1,1,20260329,20260404,775
0,0,1,0,0,1,1,20260401,20260405,393
0,0,1,0,1,0,0,20260311,20260313,1050
0,0,1,0,1,0,0,20260311,20260318,978
0,0,1,0,1,0,0,20260401,20260403,25
0,0,1,0,1,0,1,20260308,20260313,819
0,0,1,0,1,0,1,20260311,20260315,242
0,0,1,1,0,0,0,20260311,20260312,597
0,0,1,1,0,0,0,20260311,20260312,832
0,0,1,1,0,0,0,20260311,20260312,911
0,0,1,1,0,0,0,20260311,20260316,715
0,0,1,1,0,0,0,20260312,20260323,561
0,0,1,1,0,0,0,20260318,20260319,739
0,0,1,1,0,0,0,20260325,20260326,504
0,0,1,1,0,0,0,20260401,20260402,644
0,0,1,1,0,1,0,20260307,20260404,175
0,0,1,1,0,1,0,20260311,20260404,716
0,0,1,1,0,1,0,20260320,20260402,825
0,0,1,1,0,1,1,20260307,20260405,282
0,0,1,1,0,1,1,20260307,20260405,967
0,0,1,1,0,1,1,20260309,20260405,290
0,0,1,1,0,1,1,20260310,20260405,1060
0,0,1,1,0,1,1,20260311,20260405,713
0,0,1,1,0,1,1,20260314,20260319,415
0,0,1,1,0,1,1,20260324,20260405,320
0,0,1,1,0,1,1,20260325,20260405,228
0,0,1,1,0,1,1,20260325,20260405,659
0,0,1,1,0,1,1,20260328,20260405,434
0,0,1,1,0,1,1,20260328,20260405,935
0,0,1,1,0,1,1,20260401,20260405,552
0,0,1,1,1,0,0,20260309,20260402,934
0,0,1,1,1,0,0,20260311,20260313,35
0,0,1,1,1,0,0,20260318,20260320,294
0,0,1,1,1,0,0,20260320,20260402,60
0,0,1,1,1,0,0,20260325,20260327,1018
0,0,1,1,1,0,0,20260401,20260403,908
0,0,1,1,1,0,1,20260313,20260320,265
0,0,1,1,1,1,0,20260307,20260402,113
0,0,1,1,1,1,0,20260307,20260402,549
0,0,1,1,1,1,0,20260310,20260402,750
0,0,1,1,1,1,0,20260311,20260319,689
0,0,1,1,1,1,0,20260318,20260321,77
0,0,1,1,1,1,0,20260401,20260404,372
0,0,1,1,1,1,1,20260307,20260318,894
0,0,1,1,1,1,1,20260311,20260315,531
0,0,1,1,1,1,1,20260311,20260327,916
0,0,1,1,1,1,1,20260311,20260406,432
0,0,1,1,1,1,1,20260315,20260325,1004
0,0,1,1,1,1,1,20260318,20260322,428
0,0,1,1,1,1,1,20260320,20260327,241
0,1,0,0,0,0,1,20260308,20260310,936
0,1,0,0,0,0,1,20260329,20260331,492
0,1,0,0,0,0,1,20260331,20260405,709
0,1,0,0,0,1,0,20260328,20260331,56
0,1,0,0,0,1,1,20260307,20260310,293
0,1,0,0,1,0,0,20260331,20260403,450
0,1,0,0,1,1,0,20260327,20260328,627
0,1,0,0,1,1,1,20260328,20260403,323
0,1,0,1,0,0,0,20260317,20260319,925
0,1,0,1,0,0,0,20260324,20260326,231
0,1,0,1,0,0,0,20260331,20260402,429
0,1,0,1,0,0,1,20260319,20260402,958
0,1,0,1,0,1,1,20260307,20260312,338
0,1,0,1,0,1,1,20260310,20260315,2
0,1,0,1,0,1,1,20260328,20260405,1006
0,1,1,0,0,0,0,20260310,20260311,105
0,1,1,0,0,0,0,20260317,20260318,250
0,1,1,0,0,0,0,20260324,20260325,418
0,1,1,0,0,0,0,20260331,20260401,608
0,1,1,0,0,0,1,20260308,20260311,304
0,1,1,0,0,1,0,20260307,20260311,78
0,1,1,0,0,1,1,20260314,20260329,1056
0,1,1,0,1,0,0,20260313,20260318,776
0,1,1,0,1,0,1,20260307,20260319,516
0,1,1,0,1,0,1,20260308,20260405,895
0,1,1,0,1,0,1,20260311,20260406,288
0,1,1,0,1,1,1,20260307,20260318,63
0,1,1,0,1,1,1,20260317,20260322,921
0,1,1,1,0,0,0,20260309,20260319,543
0,1,1,1,0,0,0,20260309,20260329,264
0,1,1,1,0,0,0,20260310,20260312,32
0,1,1,1,0,0,0,20260310,20260319,275
0,1,1,1,0,0,0,20260312,20260318,1030
0,1,1,1,0,0,0,20260312,20260319,422
0,1,1,1,0,0,0,20260317,20260319,229
0,1,1,1,0,0,0,20260324,20260326,730
0,1,1,1,0,0,0,20260324,20260326,828
0,1,1,1,0,0,0,20260326,20260401,583
0,1,1,1,0,0,0,20260331,20260402,846
0,1,1,1,0,0,0,20260331,20260405,617
0,1,1,1,0,0,1,20260307,20260312,859
0,1,1,1,0,0,1,20260310,20260405,48
0,1,1,1,0,0,1,20260324,20260406,886
0,1,1,1,0,1,1,20260307,20260312,587
0,1,1,1,0,1,1,20260308,20260314,136
0,1,1,1,0,1,1,20260331,20260405,814
0,1,1,1,1,0,0,20260307,20260320,155
0,1,1,1,1,0,0,20260309,20260318,487
0,1,1,1,1,0,0,20260310,20260313,747
0,1,1,1,1,0,0,20260313,20260319,19
0,1,1,1,1,0,0,20260316,20260324,150
0,1,1,1,1,0,0,20260324,20260327,183
0,1,1,1,1,0,0,20260331,20260406,511
0,1,1,1,1,0,1,20260308,20260318,970
0,1,1,1,1,0,1,20260308,20260322,622
0,1,1,1,1,0,1,20260308,20260402,162
0,1,1,1,1,0,1,20260312,20260406,123
0,1,1,1,1,1,0,20260307,20260320,387
0,1,1,1,1,1,0,20260307,20260321,1045
0,1,1,1,1,1,0,20260324,20260328,1001
0,1,1,1,1,1,0,20260331,20260406,480
0,1,1,1,1,1,1,20260307,20260315,44
0,1,1,1,1,1,1,20260307,20260326,682
0,1,1,1,1,1,1,20260307,20260405,84
0,1,1,1,1,1,1,20260307,20260406,1029
0,1,1,1,1,1,1,20260307,20260406,339
0,1,1,1,1,1,1,20260308,20260317,694
0,1,1,1,1,1,1,20260309,20260322,873
0,1,1,1,1,1,1,20260309,20260406,360
0,1,1,1,1,1,1,20260311,20260327,679
0,1,1,1,1,1,1,20260316,20260324,909
0,1,1,1,1,1,1,20260324,20260405,780
0,1,1,1,1,1,1,20260328,20260406,93
0,1,1,1,1,1,1,20260331,20260405,880
1,0,0,0,0,0,0,20260307,20260309,66
1,0,0,0,0,0,0,20260309,20260316,370
1,0,0,0,0,0,0,20260309,20260330,406
1,0,0,0,0,0,0,20260316,20260324,805
1,0,0,0,0,0,0,20260316,20260330,692
1,0,0,0,0,0,0,20260330,20260406,749
1,0,0,0,0,0,1,20260308,20260309,268
1,0,0,0,0,0,1,20260309,20260315,517
1,0,0,0,0,0,1,20260315,20260316,436
1,0,0,0,0,0,1,20260322,20260323,890
1,0,0,0,0,0,1,20260322,20260329,959
1,0,0,0,0,0,1,20260323,20260405,118
1,0,0,0,0,0,1,20260323,20260405,143
1,0,0,0,0,0,1,20260329,20260330,95
1,0,0,0,0,0,1,20260330,20260405,932
1,0,0,0,0,0,1,20260405,20260406,545
1,0,0,0,0,0,1,20260405,20260406,667
1,0,0,0,0,1,0,20260307,20260309,17
1,0,0,0,0,1,0,20260314,20260316,126
1,0,0,0,0,1,0,20260330,20260404,151
1,0,0,0,0,1,1,20260307,20260309,192
1,0,0,0,0,1,1,20260314,20260316,305
1,0,0,0,0,1,1,20260321,20260323,994
1,0,0,0,0,1,1,20260321,20260329,144
1,0,0,0,0,1,1,20260328,20260330,385
1,0,0,0,0,1,1,20260404,20260406,588
1,0,0,0,1,0,0,20260309,20260313,897
1,0,0,0,1,0,0,20260323,20260406,7
1,0,0,0,1,0,0,20260403,20260406,1046
1,0,0,0,1,0,1,20260320,20260405,631
1,0,0,0,1,0,1,20260403,20260406,33
1,0,0,0,1,1,0,20260313,20260406,496
1,0,0,0,1,1,0,20260323,20260328,849
1,0,0,0,1,1,0,20260403,20260406,786
1,0,0,0,1,1,1,20260307,20260405,605
1,0,0,0,1,1,1,20260307,20260406,464
1,0,0,0,1,1,1,20260319,20260330,992
1,0,0,0,1,1,1,20260320,20260323,16
1,0,0,0,1,1,1,20260403,20260406,986
1,0,0,1,0,0,0,20260316,20260319,6
1,0,0,1,0,0,1,20260312,20260325,470
1,0,0,1,0,1,1,20260319,20260404,1051
1,0,0,1,1,0,0,20260319,20260331,152
1,0,0,1,1,0,0,20260402,20260406,960
1,0,0,1,1,1,1,20260319,20260405,771
1,0,0,1,1,1,1,20260320,20260327,953
1,0,0,1,1,1,1,20260329,20260406,923
1,0,0,1,1,1,1,20260402,20260406,847
1,0,1,0,0,0,0,20260309,20260311,534
1,0,1,0,0,0,0,20260316,20260318,312
1,0,1,0,0,0,0,20260323,20260325,257
1,0,1,0,0,0,0,20260330,20260401,618
1,0,1,0,0,0,0,20260401,20260406,773
1,0,1,0,0,0,1,20260322,20260405,742
1,0,1,0,0,1,0,20260321,20260404,981
1,0,1,0,0,1,1,20260314,20260318,465
1,0,1,0,0,1,1,20260323,20260405,634
1,0,1,0,0,1,1,20260401,20260406,862
1,0,1,0,1,0,0,20260323,20260327,69
1,0,1,0,1,1,0,20260307,20260319,347
1,0,1,0,1,1,1,20260320,20260404,199
1,0,1,1,0,0,0,20260309,20260319,950
1,0,1,1,0,0,0,20260309,20260326,1026
1,0,1,1,0,0,0,20260309,20260406,161
1,0,1,1,0,0,0,20260311,20260316,321
1,0,1,1,0,0,0,20260316,20260319,10
1,0,1,1,0,0,0,20260316,20260326,704
1,0,1,1,0,0,0,20260319,20260402,52
1,0,1,1,0,0,0,20260320,20260401,283
1,0,1,1,0,0,0,20260323,20260326,100
1,0,1,1,0,0,0,20260323,20260326,449
1,0,1,1,0,0,0,20260323,20260405,232
1,0,1,1,0,0,0,20260330,20260402,711
1,0,1,1,0,0,1,20260311,20260326,933
1,0,1,1,0,1,0,20260323,20260404,70
1,0,1,1,0,1,1,20260307,20260312,189
1,0,1,1,0,1,1,20260323,20260405,787
1,0,1,1,0,1,1,20260324,20260405,1058
1,0,1,1,0,1,1,20260328,20260405,255
1,0,1,1,1,0,0,20260309,20260402,247
1,0,1,1,1,0,0,20260309,20260406,196
1,0,1,1,1,0,0,20260313,20260319,233
1,0,1,1,1,0,0,20260316,20260320,602
1,0,1,1,1,0,0,20260320,20260401,1034
1,0,1,1,1,0,0,20260320,20260402,131
1,0,1,1,1,0,0,20260320,20260402,439
1,0,1,1,1,0,0,20260320,20260404,956
1,0,1,1,1,0,0,20260320,20260405,71
1,0,1,1,1,0,0,20260320,20260406,398
1,0,1,1,1,0,0,20260323,20260402,584
1,0,1,1,1,0,0,20260324,20260402,430
1,0,1,1,1,0,1,20260311,20260326,495
1,0,1,1,1,0,1,20260313,20260326,804
1,0,1,1,1,0,1,20260319,20260327,971
1,0,1,1,1,0,1,20260320,20260402,906
1,0,1,1,1,1,0,20260320,20260402,512
1,0,1,1,1,1,0,20260323,20260329,649
1,0,1,1,1,1,0,20260323,20260402,180
1,0,1,1,1,1,1,20260307,20260406,34
1,0,1,1,1,1,1,20260307,20260406,442
1,0,1,1,1,1,1,20260308,20260406,509
1,0,1,1,1,1,1,20260313,20260326,205
1,0,1,1,1,1,1,20260316,20260406,145
1,0,1,1,1,1,1,20260319,20260405,684
1,0,1,1,1,1,1,20260320,20260327,24
1,0,1,1,1,1,1,20260320,20260402,772
1,0,1,1,1,1,1,20260320,20260405,299
1,0,1,1,1,1,1,20260328,20260406,683
1,0,1,1,1,1,1,20260329,20260405,114
1,0,1,1,1,1,1,20260401,20260406,658
1,1,0,0,0,0,0,20260309,20260310,733
1,1,0,0,0,0,0,20260309,20260319,185
1,1,0,0,0,0,0,20260316,20260317,806
1,1,0,0,0,0,0,20260323,20260324,976
1,1,0,0,0,0,0,20260330,20260331,1019
1,1,0,0,0,0,0,20260331,20260406,717
1,1,0,0,0,0,1,20260307,20260316,757
1,1,0,0,0,0,1,20260308,20260310,358
1,1,0,0,0,0,1,20260308,20260406,324
1,1,0,0,0,0,1,20260315,20260317,147
1,1,0,0,0,0,1,20260327,20260406,1059
1,1,0,0,0,1,0,20260307,20260310,306
1,1,0,0,0,1,0,20260307,20260328,469
1,1,0,0,0,1,0,20260309,20260314,753
1,1,0,0,0,1,0,20260314,20260317,671
1,1,0,0,0,1,0,20260328,20260331,564
1,1,0,0,0,1,1,20260307,20260310,198
1,1,0,0,0,1,1,20260307,20260406,276
1,1,0,0,0,1,1,20260307,20260406,951
1,1,0,0,0,1,1,20260321,20260324,952
1,1,0,0,1,0,0,20260331,20260406,998
1,1,0,0,1,1,1,20260327,20260404,522
1,1,0,1,0,0,0,20260309,20260312,818
1,1,0,1,0,0,0,20260312,20260317,1007
1,1,0,1,0,0,0,20260316,20260319,518
1,1,0,1,0,0,0,20260330,20260402,930
1,1,0,1,0,0,1,20260308,20260318,581
1,1,0,1,0,0,1,20260329,20260402,1047
1,1,0,1,0,1,0,20260307,20260312,791
1,1,0,1,0,1,1,20260327,20260405,300
1,1,0,1,0,1,1,20260328,20260402,647
1,1,0,1,0,1,1,20260328,20260405,1044
1,1,0,1,1,0,0,20260309,20260313,222
1,1,0,1,1,0,0,20260316,20260320,603
1,1,0,1,1,0,0,20260323,20260327,1008
1,1,0,1,1,0,0,20260330,20260403,380
1,1,0,1,1,1,1,20260307,20260315,212
1,1,0,1,1,1,1,20260307,20260406,378
1,1,0,1,1,1,1,20260315,20260321,781
1,1,0,1,1,1,1,20260316,20260322,527
1,1,0,1,1,1,1,20260319,20260324,184
1,1,0,1,1,1,1,20260319,20260405,528
1,1,0,1,1,1,1,20260328,20260406,382
1,1,1,0,0,0,0,20260307,20260318,58
1,1,1,0,0,0,0,20260307,20260318,792
1,1,1,0,0,0,0,20260309,20260311,866
1,1,1,0,0,0,0,20260309,20260318,379
1,1,1,0,0,0,0,20260309,20260319,837
1,1,1,0,0,0,0,20260309,20260325,451
1,1,1,0,0,0,0,20260316,20260318,178
1,1,1,0,0,0,0,20260323,20260325,823
1,1,1,0,0,0,0,20260324,20260401,902
1,1,1,0,0,0,0,20260328,20260406,141
1,1,1,0,0,0,0,20260330,20260401,1014
1,1,1,0,0,0,1,20260307,20260318,301
1,1,1,0,0,0,1,20260308,20260311,937
1,1,1,0,0,0,1,20260308,20260315,984
1,1,1,0,0,0,1,20260308,20260325,795
1,1,1,0,0,0,1,20260308,20260325,948
1,1,1,0,0,0,1,20260314,20260318,50
1,1,1,0,0,0,1,20260315,20260318,835
1,1,1,0,0,0,1,20260316,20260324,651
1,1,1,0,0,0,1,20260322,20260325,1057
1,1,1,0,0,0,1,20260329,20260401,888
1,1,1,0,0,0,1,20260330,20260405,962
1,1,1,0,0,1,0,20260311,20260319,571
1,1,1,0,0,1,0,20260314,20260318,426
1,1,1,0,0,1,0,20260321,20260322,540
1,1,1,0,0,1,0,20260328,20260401,433
1,1,1,0,0,1,1,20260323,20260330,725
1,1,1,0,0,1,1,20260328,20260401,887
1,1,1,0,0,1,1,20260328,20260406,734
1,1,1,0,1,0,0,20260307,20260316,731
1,1,1,0,1,0,0,20260307,20260325,768
1,1,1,0,1,0,0,20260311,20260318,662
1,1,1,0,1,0,0,20260313,20260318,700
1,1,1,0,1,0,0,20260316,20260320,690
1,1,1,0,1,0,1,20260330,20260406,1000
1,1,1,0,1,1,0,20260307,20260318,1063
1,1,1,0,1,1,0,20260307,20260325,758
1,1,1,0,1,1,0,20260309,20260315,138
1,1,1,0,1,1,0,20260309,20260315,556
1,1,1,0,1,1,0,20260321,20260406,582
1,1,1,0,1,1,0,20260321,20260406,855
1,1,1,0,1,1,0,20260323,20260329,794
1,1,1,0,1,1,1,20260307,20260315,47
1,1,1,0,1,1,1,20260307,20260316,206
1,1,1,0,1,1,1,20260307,20260319,73
1,1,1,0,1,1,1,20260307,20260322,751
1,1,1,0,1,1,1,20260307,20260324,666
1,1,1,0,1,1,1,20260307,20260406,510
1,1,1,0,1,1,1,20260308,20260315,375
1,1,1,0,1,1,1,20260308,20260330,708
1,1,1,0,1,1,1,20260309,20260331,92
1,1,1,0,1,1,1,20260309,20260406,762
1,1,1,0,1,1,1,20260321,20260327,538
1,1,1,0,1,1,1,20260321,20260329,466
1,1,1,0,1,1,1,20260322,20260328,884
1,1,1,0,1,1,1,20260401,20260404,576
1,1,1,1,0,0,0,20260307,20260319,248
1,1,1,1,0,0,0,20260307,20260402,1005
1,1,1,1,0,0,0,20260307,20260405,1061
1,1,1,1,0,0,0,20260308,20260319,121
1,1,1,1,0,0,0,20260308,20260402,220
1,1,1,1,0,0,0,20260308,20260402,254
1,1,1,1,0,0,0,20260308,20260402,796
1,1,1,1,0,0,0,20260309,20260312,364
1,1,1,1,0,0,0,20260309,20260316,238
1,1,1,1,0,0,0,20260309,20260319,493
1,1,1,1,0,0,0,20260309,20260326,484
1,1,1,1,0,0,0,20260309,20260402,354
1,1,1,1,0,0,0,20260309,20260402,475
1,1,1,1,0,0,0,20260309,20260402,912
1,1,1,1,0,0,0,20260309,20260405,335
1,1,1,1,0,0,0,20260309,20260405,412
1,1,1,1,0,0,0,20260309,20260405,719
1,1,1,1,0,0,0,20260309,20260406,550
1,1,1,1,0,0,0,20260309,20260406,968
1,1,1,1,0,0,0,20260310,20260319,979
1,1,1,1,0,0,0,20260311,20260318,401
1,1,1,1,0,0,0,20260311,20260326,463
1,1,1,1,0,0,0,20260312,20260318,672
1,1,1,1,0,0,0,20260313,20260406,472
1,1,1,1,0,0,0,20260316,20260319,139
1,1,1,1,0,0,0,20260316,20260319,942
1,1,1,1,0,0,0,20260316,20260324,494
1,1,1,1,0,0,0,20260317,20260406,5
1,1,1,1,0,0,0,20260319,20260401,116
1,1,1,1,0,0,0,20260323,20260326,961
1,1,1,1,0,0,0,20260323,20260331,891
1,1,1,1,0,0,0,20260323,20260401,327
1,1,1,1,0,0,0,20260323,20260406,115
1,1,1,1,0,0,0,20260326,20260404,243
1,1,1,1,0,0,0,20260326,20260406,376
1,1,1,1,0,0,0,20260326,20260406,993
1,1,1,1,0,0,0,20260328,20260406,164
1,1,1,1,0,0,0,20260328,20260406,79
1,1,1,1,0,0,0,20260329,20260406,1055
1,1,1,1,0,0,0,20260330,20260402,1037
1,1,1,1,0,0,0,20260330,20260406,341
1,1,1,1,0,0,1,20260308,20260312,211
1,1,1,1,0,0,1,20260308,20260312,59
1,1,1,1,0,0,1,20260308,20260401,989
1,1,1,1,0,0,1,20260308,20260406,362
1,1,1,1,0,0,1,20260308,20260406,638
1,1,1,1,0,0,1,20260311,20260405,565
1,1,1,1,0,0,1,20260315,20260319,720
1,1,1,1,0,0,1,20260322,20260326,557
1,1,1,1,0,0,1,20260322,20260401,381
1,1,1,1,0,0,1,20260325,20260406,373
1,1,1,1,0,1,0,20260307,20260319,213
1,1,1,1,0,1,0,20260309,20260315,342
1,1,1,1,0,1,0,20260309,20260406,831
1,1,1,1,0,1,0,20260311,20260326,857
1,1,1,1,0,1,0,20260314,20260319,172
1,1,1,1,0,1,0,20260314,20260402,420
1,1,1,1,0,1,0,20260323,20260403,80
1,1,1,1,0,1,0,20260328,20260402,485
1,1,1,1,0,1,0,20260328,20260404,367
1,1,1,1,0,1,1,20260307,20260312,922
1,1,1,1,0,1,1,20260307,20260319,867
1,1,1,1,0,1,1,20260307,20260322,523
1,1,1,1,0,1,1,20260307,20260324,214
1,1,1,1,0,1,1,20260307,20260325,230
1,1,1,1,0,1,1,20260307,20260326,328
1,1,1,1,0,1,1,20260307,20260327,865
1,1,1,1,0,1,1,20260307,20260405,579
1,1,1,1,0,1,1,20260307,20260405,74
1,1,1,1,0,1,1,20260308,20260406,1048
1,1,1,1,0,1,1,20260309,20260315,553
1,1,1,1,0,1,1,20260309,20260316,325
1,1,1,1,0,1,1,20260309,20260319,554
1,1,1,1,0,1,1,20260314,20260319,389
1,1,1,1,0,1,1,20260319,20260405,673
1,1,1,1,0,1,1,20260321,20260326,295
1,1,1,1,0,1,1,20260321,20260331,918
1,1,1,1,0,1,1,20260323,20260405,349
1,1,1,1,0,1,1,20260325,20260405,878
1,1,1,1,0,1,1,20260325,20260406,799
1,1,1,1,0,1,1,20260327,20260405,988
1,1,1,1,0,1,1,20260328,20260402,503
1,1,1,1,0,1,1,20260328,20260405,234
1,1,1,1,0,1,1,20260329,20260405,170
1,1,1,1,0,1,1,20260330,20260405,606
1,1,1,1,1,0,0,20260307,20260318,202
1,1,1,1,1,0,0,20260307,20260318,639
1,1,1,1,1,0,0,20260307,20260319,609
1,1,1,1,1,0,0,20260307,20260319,924
1,1,1,1,1,0,0,20260307,20260327,938
1,1,1,1,1,0,0,20260307,20260401,674
1,1,1,1,1,0,0,20260307,20260402,452
1,1,1,1,1,0,0,20260307,20260402,770
1,1,1,1,1,0,0,20260307,20260402,980
1,1,1,1,1,0,0,20260307,20260406,526
1,1,1,1,1,0,0,20260308,20260319,435
1,1,1,1,1,0,0,20260308,20260402,21
1,1,1,1,1,0,0,20260309,20260313,148
1,1,1,1,1,0,0,20260309,20260313,177
1,1,1,1,1,0,0,20260309,20260313,203
1,1,1,1,1,0,0,20260309,20260318,88
1,1,1,1,1,0,0,20260309,20260319,473
1,1,1,1,1,0,0,20260309,20260320,640
1,1,1,1,1,0,0,20260309,20260325,790
1,1,1,1,1,0,0,20260309,20260327,1025
1,1,1,1,1,0,0,20260309,20260327,239
1,1,1,1,1,0,0,20260309,20260327,697
1,1,1,1,1,0,0,20260309,20260328,51
1,1,1,1,1,0,0,20260309,20260330,478
1,1,1,1,1,0,0,20260309,20260331,654
1,1,1,1,1,0,0,20260309,20260401,1027
1,1,1,1,1,0,0,20260309,20260401,1043
1,1,1,1,1,0,0,20260309,20260401,112
1,1,1,1,1,0,0,20260309,20260402,1002
1,1,1,1,1,0,0,20260309,20260402,221
1,1,1,1,1,0,0,20260309,20260402,40
1,1,1,1,1,0,0,20260309,20260402,620
1,1,1,1,1,0,0,20260309,20260402,820
1,1,1,1,1,0,0,20260309,20260402,876
1,1,1,1,1,0,0,20260309,20260403,157
1,1,1,1,1,0,0,20260309,20260404,176
1,1,1,1,1,0,0,20260309,20260405,361
1,1,1,1,1,0,0,20260309,20260405,544
1,1,1,1,1,0,0,20260309,20260406,302
1,1,1,1,1,0,0,20260309,20260406,702
1,1,1,1,1,0,0,20260310,20260320,313
1,1,1,1,1,0,0,20260310,20260402,65
1,1,1,1,1,0,0,20260310,20260402,759
1,1,1,1,1,0,0,20260310,20260402,889
1,1,1,1,1,0,0,20260311,20260318,258
1,1,1,1,1,0,0,20260311,20260319,208
1,1,1,1,1,0,0,20260311,20260324,298
1,1,1,1,1,0,0,20260311,20260326,482
1,1,1,1,1,0,0,20260311,20260327,296
1,1,1,1,1,0,0,20260311,20260327,628
1,1,1,1,1,0,0,20260311,20260327,931
1,1,1,1,1,0,0,20260311,20260402,722
1,1,1,1,1,0,0,20260311,20260406,982
1,1,1,1,1,0,0,20260312,20260320,656
1,1,1,1,1,0,0,20260312,20260327,256
1,1,1,1,1,0,0,20260312,20260406,788
1,1,1,1,1,0,0,20260313,20260402,1022
1,1,1,1,1,0,0,20260313,20260406,600
1,1,1,1,1,0,0,20260316,20260320,851
1,1,1,1,1,0,0,20260316,20260324,173
1,1,1,1,1,0,0,20260316,20260325,330
1,1,1,1,1,0,0,20260316,20260327,881
1,1,1,1,1,0,0,20260316,20260327,928
1,1,1,1,1,0,0,20260316,20260402,443
1,1,1,1,1,0,0,20260316,20260402,45
1,1,1,1,1,0,0,20260316,20260403,568
1,1,1,1,1,0,0,20260318,20260402,399
1,1,1,1,1,0,0,20260319,20260330,38
1,1,1,1,1,0,0,20260319,20260402,355
1,1,1,1,1,0,0,20260320,20260327,331
1,1,1,1,1,0,0,20260320,20260328,81
1,1,1,1,1,0,0,20260320,20260329,8
1,1,1,1,1,0,0,20260320,20260330,939
1,1,1,1,1,0,0,20260320,20260402,1016
1,1,1,1,1,0,0,20260320,20260406,260
1,1,1,1,1,0,0,20260323,20260327,336
1,1,1,1,1,0,0,20260323,20260327,459
1,1,1,1,1,0,0,20260323,20260327,680
1,1,1,1,1,0,0,20260323,20260401,171
1,1,1,1,1,0,0,20260323,20260402,129
1,1,1,1,1,0,0,20260323,20260403,410
1,1,1,1,1,0,0,20260325,20260402,793
1,1,1,1,1,0,0,20260327,20260402,127
1,1,1,1,1,0,0,20260328,20260406,153
1,1,1,1,1,0,0,20260330,20260403,368
1,1,1,1,1,0,0,20260401,20260403,633
1,1,1,1,1,0,1,20260307,20260313,23
1,1,1,1,1,0,1,20260307,20260322,957
1,1,1,1,1,0,1,20260308,20260319,879
1,1,1,1,1,0,1,20260308,20260320,839
1,1,1,1,1,0,1,20260308,20260322,308
1,1,1,1,1,0,1,20260308,20260322,783
1,1,1,1,1,0,1,20260308,20260331,261
1,1,1,1,1,0,1,20260308,20260406,271
1,1,1,1,1,0,1,20260308,20260406,404
1,1,1,1,1,0,1,20260308,20260406,425
1,1,1,1,1,0,1,20260308,20260406,589
1,1,1,1,1,0,1,20260308,20260406,646
1,1,1,1,1,0,1,20260309,20260331,194
1,1,1,1,1,0,1,20260309,20260401,36
1,1,1,1,1,0,1,20260309,20260406,22
1,1,1,1,1,0,1,20260309,20260406,278
1,1,1,1,1,0,1,20260309,20260406,89
1,1,1,1,1,0,1,20260311,20260326,187
1,1,1,1,1,0,1,20260312,20260325,215
1,1,1,1,1,0,1,20260312,20260401,590
1,1,1,1,1,0,1,20260315,20260320,490
1,1,1,1,1,0,1,20260315,20260402,655
1,1,1,1,1,0,1,20260315,20260406,826
1,1,1,1,1,0,1,20260320,20260326,350
1,1,1,1,1,0,1,20260320,20260327,1052
1,1,1,1,1,0,1,20260320,20260402,563
1,1,1,1,1,0,1,20260322,20260327,641
1,1,1,1,1,0,1,20260322,20260327,75
1,1,1,1,1,0,1,20260322,20260327,913
1,1,1,1,1,0,1,20260322,20260327,977
1,1,1,1,1,0,1,20260323,20260329,591
1,1,1,1,1,0,1,20260330,20260406,999
1,1,1,1,1,1,0,20260307,20260313,61
1,1,1,1,1,1,0,20260307,20260314,580
1,1,1,1,1,1,0,20260307,20260315,635
1,1,1,1,1,1,0,20260307,20260318,204
1,1,1,1,1,1,0,20260307,20260318,384
1,1,1,1,1,1,0,20260307,20260319,940
1,1,1,1,1,1,0,20260307,20260320,218
1,1,1,1,1,1,0,20260307,20260321,87
1,1,1,1,1,1,0,20260307,20260322,735
1,1,1,1,1,1,0,20260307,20260327,374
1,1,1,1,1,1,0,20260307,20260327,471
1,1,1,1,1,1,0,20260307,20260327,558
1,1,1,1,1,1,0,20260307,20260327,840
1,1,1,1,1,1,0,20260307,20260328,691
1,1,1,1,1,1,0,20260307,20260401,461
1,1,1,1,1,1,0,20260307,20260402,537
1,1,1,1,1,1,0,20260307,20260402,903
1,1,1,1,1,1,0,20260307,20260403,699
1,1,1,1,1,1,0,20260307,20260404,41
1,1,1,1,1,1,0,20260307,20260404,802
1,1,1,1,1,1,0,20260307,20260404,852
1,1,1,1,1,1,0,20260307,20260405,20
1,1,1,1,1,1,0,20260307,20260406,109
1,1,1,1,1,1,0,20260309,20260314,555
1,1,1,1,1,1,0,20260309,20260315,900
1,1,1,1,1,1,0,20260309,20260318,661
1,1,1,1,1,1,0,20260309,20260319,858
1,1,1,1,1,1,0,20260309,20260401,508
1,1,1,1,1,1,0,20260309,20260401,97
1,1,1,1,1,1,0,20260309,20260402,454
1,1,1,1,1,1,0,20260309,20260402,698
1,1,1,1,1,1,0,20260309,20260404,535
1,1,1,1,1,1,0,20260309,20260405,1020
1,1,1,1,1,1,0,20260310,20260320,844
1,1,1,1,1,1,0,20260310,20260401,966
1,1,1,1,1,1,0,20260311,20260327,343
1,1,1,1,1,1,0,20260311,20260403,252
1,1,1,1,1,1,0,20260312,20260406,1031
1,1,1,1,1,1,0,20260312,20260406,279
1,1,1,1,1,1,0,20260313,20260319,85
1,1,1,1,1,1,0,20260314,20260403,409
1,1,1,1,1,1,0,20260316,20260321,427
1,1,1,1,1,1,0,20260316,20260321,445
1,1,1,1,1,1,0,20260316,20260324,996
1,1,1,1,1,1,0,20260316,20260330,158
1,1,1,1,1,1,0,20260316,20260404,55
1,1,1,1,1,1,0,20260316,20260405,67
1,1,1,1,1,1,0,20260317,20260324,29
1,1,1,1,1,1,0,20260317,20260405,769
1,1,1,1,1,1,0,20260318,20260330,898
1,1,1,1,1,1,0,20260319,20260330,625
1,1,1,1,1,1,0,20260319,20260404,210
1,1,1,1,1,1,0,20260319,20260404,536
1,1,1,1,1,1,0,20260320,20260327,567
1,1,1,1,1,1,0,20260320,20260402,987
1,1,1,1,1,1,0,20260320,20260404,76
1,1,1,1,1,1,0,20260320,20260404,824
1,1,1,1,1,1,0,20260320,20260406,460
1,1,1,1,1,1,0,20260321,20260327,386
1,1,1,1,1,1,0,20260323,20260328,926
1,1,1,1,1,1,0,20260323,20260403,789
1,1,1,1,1,1,0,20260325,20260403,941
1,1,1,1,1,1,0,20260328,20260403,885
1,1,1,1,1,1,0,20260330,20260406,322
1,1,1,1,1,1,0,20260401,20260405,156
1,1,1,1,1,1,1,20260307,20260313,334
1,1,1,1,1,1,1,20260307,20260315,348
1,1,1,1,1,1,1,20260307,20260316,562
1,1,1,1,1,1,1,20260307,20260317,532
1,1,1,1,1,1,1,20260307,20260318,559
1,1,1,1,1,1,1,20260307,20260319,390
1,1,1,1,1,1,1,20260307,20260322,481
1,1,1,1,1,1,1,20260307,20260322,94
1,1,1,1,1,1,1,20260307,20260325,286
1,1,1,1,1,1,1,20260307,20260326,505
1,1,1,1,1,1,1,20260307,20260326,973
1,1,1,1,1,1,1,20260307,20260327,102
1,1,1,1,1,1,1,20260307,20260327,195
1,1,1,1,1,1,1,20260307,20260327,352
1,1,1,1,1,1,1,20260307,20260331,1054
1,1,1,1,1,1,1,20260307,20260331,42
1,1,1,1,1,1,1,20260307,20260401,743
1,1,1,1,1,1,1,20260307,20260401,954
1,1,1,1,1,1,1,20260307,20260402,1041
1,1,1,1,1,1,1,20260307,20260402,546
1,1,1,1,1,1,1,20260307,20260402,946
1,1,1,1,1,1,1,20260307,20260405,253
1,1,1,1,1,1,1,20260307,20260405,30
1,1,1,1,1,1,1,20260307,20260405,46
1,1,1,1,1,1,1,20260307,20260405,688
1,1,1,1,1,1,1,20260307,20260405,907
1,1,1,1,1,1,1,20260307,20260406,163
1,1,1,1,1,1,1,20260307,20260406,167
1,1,1,1,1,1,1,20260307,20260406,190
1,1,1,1,1,1,1,20260307,20260406,193
1,1,1,1,1,1,1,20260307,20260406,225
1,1,1,1,1,1,1,20260307,20260406,249
1,1,1,1,1,1,1,20260307,20260406,272
1,1,1,1,1,1,1,20260307,20260406,285
1,1,1,1,1,1,1,20260307,20260406,391
1,1,1,1,1,1,1,20260307,20260406,400
1,1,1,1,1,1,1,20260307,20260406,414
1,1,1,1,1,1,1,20260307,20260406,423
1,1,1,1,1,1,1,20260307,20260406,474
1,1,1,1,1,1,1,20260307,20260406,570
1,1,1,1,1,1,1,20260307,20260406,630
1,1,1,1,1,1,1,20260307,20260406,675
1,1,1,1,1,1,1,20260307,20260406,677
1,1,1,1,1,1,1,20260307,20260406,740
1,1,1,1,1,1,1,20260307,20260406,841
1,1,1,1,1,1,1,20260307,20260406,892
1,1,1,1,1,1,1,20260307,20260406,974
1,1,1,1,1,1,1,20260308,20260314,259
1,1,1,1,1,1,1,20260308,20260314,413
1,1,1,1,1,1,1,20260308,20260317,317
1,1,1,1,1,1,1,20260308,20260318,346
1,1,1,1,1,1,1,20260308,20260322,809
1,1,1,1,1,1,1,20260308,20260327,371
1,1,1,1,1,1,1,20260308,20260328,945
1,1,1,1,1,1,1,20260308,20260329,270
1,1,1,1,1,1,1,20260308,20260402,610
1,1,1,1,1,1,1,20260308,20260403,291
1,1,1,1,1,1,1,20260308,20260406,1009
1,1,1,1,1,1,1,20260308,20260406,12
1,1,1,1,1,1,1,20260308,20260406,592
1,1,1,1,1,1,1,20260309,20260315,235
1,1,1,1,1,1,1,20260309,20260318,416
1,1,1,1,1,1,1,20260309,20260319,724
1,1,1,1,1,1,1,20260309,20260322,882
1,1,1,1,1,1,1,20260309,20260401,359
1,1,1,1,1,1,1,20260309,20260401,497
1,1,1,1,1,1,1,20260309,20260401,983
1,1,1,1,1,1,1,20260309,20260402,318
1,1,1,1,1,1,1,20260309,20260403,695
1,1,1,1,1,1,1,20260309,20260403,943
1,1,1,1,1,1,1,20260309,20260405,135
1,1,1,1,1,1,1,20260309,20260405,863
1,1,1,1,1,1,1,20260309,20260406,3
1,1,1,1,1,1,1,20260309,20260406,395
1,1,1,1,1,1,1,20260309,20260406,541
1,1,1,1,1,1,1,20260309,20260406,62
1,1,1,1,1,1,1,20260309,20260406,899
1,1,1,1,1,1,1,20260310,20260322,101
1,1,1,1,1,1,1,20260311,20260318,741
1,1,1,1,1,1,1,20260311,20260327,169
1,1,1,1,1,1,1,20260311,20260327,209
1,1,1,1,1,1,1,20260311,20260327,53
1,1,1,1,1,1,1,20260311,20260405,326
1,1,1,1,1,1,1,20260311,20260405,829
1,1,1,1,1,1,1,20260311,20260406,314
1,1,1,1,1,1,1,20260311,20260406,513
1,1,1,1,1,1,1,20260312,20260322,737
1,1,1,1,1,1,1,20260312,20260327,251
1,1,1,1,1,1,1,20260313,20260319,594
1,1,1,1,1,1,1,20260313,20260327,707
1,1,1,1,1,1,1,20260314,20260320,822
1,1,1,1,1,1,1,20260314,20260327,240
1,1,1,1,1,1,1,20260314,20260402,919
1,1,1,1,1,1,1,20260315,20260321,577
1,1,1,1,1,1,1,20260316,20260322,303
1,1,1,1,1,1,1,20260316,20260324,64
1,1,1,1,1,1,1,20260317,20260324,815
1,1,1,1,1,1,1,20260318,20260325,626
1,1,1,1,1,1,1,20260318,20260406,595
1,1,1,1,1,1,1,20260318,20260406,693
1,1,1,1,1,1,1,20260319,20260327,726
1,1,1,1,1,1,1,20260319,20260330,850
1,1,1,1,1,1,1,20260319,20260405,369
1,1,1,1,1,1,1,20260319,20260405,927
1,1,1,1,1,1,1,20260319,20260406,57
1,1,1,1,1,1,1,20260319,20260406,774
1,1,1,1,1,1,1,20260319,20260406,914
1,1,1,1,1,1,1,20260320,20260326,827
1,1,1,1,1,1,1,20260320,20260327,117
1,1,1,1,1,1,1,20260320,20260330,491
1,1,1,1,1,1,1,20260320,20260331,685
1,1,1,1,1,1,1,20260320,20260402,9
1,1,1,1,1,1,1,20260320,20260405,200
1,1,1,1,1,1,1,20260320,20260405,292
1,1,1,1,1,1,1,20260320,20260405,877
1,1,1,1,1,1,1,20260320,20260406,11
1,1,1,1,1,1,1,20260320,20260406,744
1,1,1,1,1,1,1,20260320,20260406,985
1,1,1,1,1,1,1,20260321,20260327,612
1,1,1,1,1,1,1,20260321,20260402,657
1,1,1,1,1,1,1,20260321,20260405,154
1,1,1,1,1,1,1,20260321,20260406,166
1,1,1,1,1,1,1,20260321,20260406,4
1,1,1,1,1,1,1,20260321,20260406,476
1,1,1,1,1,1,1,20260321,20260406,601
1,1,1,1,1,1,1,20260322,20260328,1049
1,1,1,1,1,1,1,20260323,20260330,96
1,1,1,1,1,1,1,20260323,20260402,201
1,1,1,1,1,1,1,20260323,20260403,111
1,1,1,1,1,1,1,20260323,20260405,1011
1,1,1,1,1,1,1,20260323,20260406,1
1,1,1,1,1,1,1,20260323,20260406,972
1,1,1,1,1,1,1,20260324,20260331,533
1,1,1,1,1,1,1,20260325,20260406,216
1,1,1,1,1,1,1,20260326,20260406,223
1,1,1,1,1,1,1,20260327,20260402,807
1,1,1,1,1,1,1,20260327,20260406,705
1,1,1,1,1,1,1,20260328,20260404,54
1,1,1,1,1,1,1,20260328,20260405,110
1,1,1,1,1,1,1,20260328,20260406,277
1,1,1,1,1,1,1,20260328,20260406,39
1,1,1,1,1,1,1,20260330,20260406,727
1,1,1,1,1,1,1,20260331,20260406,130
1,1,1,1,1,1,1,20260402,20260406,500
